
Welcome to IBM(R) ILOG(R) CPLEX(R) Interactive Optimizer 12.7.1.0
  with Simplex, Mixed Integer & Barrier Optimizers
5725-A06 5725-A29 5724-Y48 5724-Y49 5724-Y54 5724-Y55 5655-Y21
Copyright IBM Corp. 1988, 2017.  All Rights Reserved.

Type 'help' for a list of available commands.
Type 'help' followed by a command name for more
information on commands.

CPLEX> New value for default parallel thread count: 1
CPLEX> New value for time limit in seconds: 3600
CPLEX> Problem 'eil76_m23.lp' read.
Read time = 0.16 sec. (14.51 ticks)
CPLEX> CPXPARAM_TimeLimit                               3600
CPXPARAM_Threads                                 1
CPXPARAM_Read_APIEncoding                        "UTF-8"
Tried aggregator 1 time.
MIP Presolve modified 134550 coefficients.
Reduced MIP has 7494 rows, 131176 columns, and 787649 nonzeros.
Reduced MIP has 131100 binaries, 75 generals, 0 SOSs, and 0 indicators.
Presolve time = 0.44 sec. (583.31 ticks)
Tried aggregator 1 time.
Reduced MIP has 7494 rows, 131176 columns, and 787649 nonzeros.
Reduced MIP has 131100 binaries, 76 generals, 0 SOSs, and 0 indicators.
Presolve time = 0.49 sec. (412.04 ticks)
Probing time = 0.13 sec. (63.60 ticks)
Clique table members: 260137.
MIP emphasis: balance optimality and feasibility.
MIP search method: dynamic search.
Parallel mode: none, using 1 thread.
Root relaxation solution time = 21.11 sec. (35293.60 ticks)

        Nodes                                         Cuts/
   Node  Left     Objective  IInf  Best Integer    Best Bound    ItCnt     Gap

      0     0       43.6940   268                     43.6940    32667         
      0     0       44.8269   305                    Cuts: 67    59366         
      0     0       45.0000   401                    Cuts: 99    81708         
      0     0       45.0000   422                    Cuts: 62   108692         
      0     0       45.0000   261                    Cuts: 25   109815         
      0     0       45.0000   301                    Cuts: 97   122507         
Heuristic still looking.
Heuristic still looking.
      0     2       45.0000   220                     45.0000   122507         
Elapsed time = 327.95 sec. (510619.38 ticks, tree = 0.01 MB, solutions = 0)
      1     3       45.0000   311                     45.0000   139945         
      2     4       45.0000   273                     45.0000   146403         
      3     5       45.0000   272                     45.0000   149067         
      4     6       45.0000   249                     45.0000   153082         
      5     7       51.4906   305                     45.0000   159414         
      6     8       45.0026   248                     45.0000   161923         
      7     9       45.0028   286                     45.0000   162028         
      8    10       45.0062   275                     45.0000   162150         
      9    11       45.1446   277                     45.0000   162480         
     11    13       45.0954   258                     45.0000   163097         
Elapsed time = 415.62 sec. (672064.46 ticks, tree = 1.35 MB, solutions = 0)
     13    15       45.1839   288                     45.0000   163512         
     16    16       46.0000   253                     45.0000   171606         
     17    17       45.2870   377                     45.0000   171956         
     19    19       45.3148   445                     45.0000   172585         
     20    20       45.5739   268                     45.0000   173177         
     22    21       50.3962   270                     45.0000   173611         
     23    22       45.4855   553                     45.0000   174428         
     26    25       48.1132   253                     45.0000   175283         
     27    26       45.6122   497                     45.0000   175760         
     28    27       45.6510   581                     45.0000   176233         
Elapsed time = 434.51 sec. (705506.60 ticks, tree = 3.26 MB, solutions = 0)
     29    28       45.6173   531                     45.0000   176813         
     30    29       45.6934   451                     45.0000   177372         
     32    30       64.1415   337                     45.0000   177785         
     34    32       45.7954   471                     45.0000   178120         
     36    32       45.9026   463                     45.0000   178640         
     38    34       45.9622   419                     45.0000   179079         
     41    37       46.0707   445                     45.0000   179755         
     44    40       46.0878   341                     45.0000   181223         
     46    42       46.0991   363                     45.0000   181638         
     50    46       80.1132   288                     45.0000   194654         
Elapsed time = 452.69 sec. (735359.00 ticks, tree = 6.00 MB, solutions = 0)
     53    49       46.1970   332                     45.0000   195184         
     56    52       46.2206   356                     45.0000   195656         
     57    53       52.0377   286                     45.0000   202400         
     60    56       65.0566   342                     45.0000   217897         
     61    57       46.3631   408                     45.0000   218341         
     63    59       46.3331   533                     45.0000   218880         
     68    64       46.4688   328                     45.0000   219550         
     70    66       46.6011   321                     45.0000   220510         
     72    68       46.4957   369                     45.0000   220944         
     75    71       46.6367   356                     45.0000   221583         
Elapsed time = 502.46 sec. (816990.97 ticks, tree = 9.45 MB, solutions = 0)
     79    75       46.7505   341                     45.0000   222148         
     83    77       46.9588   301                     45.0000   222689         
     87    81       47.0533   285                     45.0000   223395         
     89    83       47.0888   289                     45.0000   223813         
     90    84       52.1887   373                     45.0000   224278         
     95    88       54.2453   378                     45.0000   225224         
     97    90       54.2453   354                     45.0000   225847         
    100    93       51.1321   254                     45.0000   226238         
    103    96       47.1834   336                     45.0000   226710         
    107   100       47.2291   371                     45.0000   227650         
Elapsed time = 510.13 sec. (830361.68 ticks, tree = 13.32 MB, solutions = 0)
    108   101       56.1132   325                     45.0000   228165         
    110   103       47.2790   386                     45.0000   228492         
    112   105       47.3695   330                     45.0000   228973         
    113   106       47.6699   330                     45.0000   229526         
    116   109       47.5162   334                     45.0000   230010         
    121   114       47.6230   394                     45.0000   230806         
    124   116       82.1132   222                     45.0000   231303         
    135   127       78.0755   221                     45.0000   231799         
    144   136       78.0755   200                     45.0000   232182         
    163   151       78.0755   215                     45.0000   232660         
Elapsed time = 517.49 sec. (842387.23 ticks, tree = 20.58 MB, solutions = 0)
    183   167      122.0000   187                     45.0000   233177         
    201   181      122.0000   184                     45.0000   233845         
    217   193      129.0943   155                     45.0000   234748         
    250   218      185.2642   122                     45.0000   235442         
    289   250      281.0000    97                     45.0000   235995         
    337   298      281.0000    23                     45.0000   236359         
*   352   247      integral     0      281.0000       45.0000   236516   83.99%
    353   247       45.0000   286      281.0000       45.0000   262297   83.99%
    354   248       45.0000   273      281.0000       45.0000   273739   83.99%
    355   249       45.0000   295      281.0000       45.0000   275719   83.99%
    356   250       45.0000   322      281.0000       45.0000   276455   83.99%
Elapsed time = 587.74 sec. (969978.70 ticks, tree = 34.81 MB, solutions = 1)
    357   251       45.1313   526      281.0000       45.0000   287919   83.99%
    358   252       45.0000   267      281.0000       45.0000   288535   83.99%
    359   253       45.0000   276      281.0000       45.0000   294799   83.99%
    360   254       45.0000   313      281.0000       45.0000   300396   83.99%
    361   255       45.0000   292      281.0000       45.0000   306236   83.99%
    362   256       45.0000   265      281.0000       45.0000   317264   83.99%
    363   257       45.0000   300      281.0000       45.0000   318514   83.99%
    364   258       45.0000   293      281.0000       45.0000   325611   83.99%
    365   259       45.0000   270      281.0000       45.0000   332639   83.99%
    366   260       45.0000   281      281.0000       45.0000   334720   83.99%
Elapsed time = 673.66 sec. (1130050.25 ticks, tree = 36.01 MB, solutions = 1)
    368   262       45.0000   246      281.0000       45.0000   335921   83.99%
    369   263       45.0000   251      281.0000       45.0000   338115   83.99%
    370   264       45.0228   227      281.0000       45.0000   344140   83.99%
    371   265       45.0069   271      281.0000       45.0000   353901   83.99%
    372   266       45.0000   294      281.0000       45.0000   354400   83.99%
    373   267       45.0048   236      281.0000       45.0000   356864   83.99%
    374   267       47.5943   258      281.0000       45.0000   366269   83.99%
    378   271       47.0000   348      281.0000       45.0000   367083   83.99%
    380   272       50.6792   297      281.0000       45.0000   367520   83.99%
    384   275       54.2642   293      281.0000       45.0000   368106   83.99%
Elapsed time = 711.18 sec. (1200223.58 ticks, tree = 38.21 MB, solutions = 1)
    386   277       52.0000   420      281.0000       45.0000   381312   83.99%
    389   279       45.1676   352      281.0000       45.0000   381904   83.99%
    393   283       45.2028   376      281.0000       45.0000   382287   83.99%
    396   285       66.1887   332      281.0000       45.0000   383046   83.99%
    398   287       56.2453   388      281.0000       45.0000   383725   83.99%
    400   289       52.2453   489      281.0000       45.0000   391889   83.99%
    403   292       45.3142   345      281.0000       45.0000   392312   83.99%
    407   295       68.1509   273      281.0000       45.0000   392994   83.99%
    410   298       47.0000   295      281.0000       45.0000   398566   83.99%
    432   320       45.6359   284      281.0000       45.0000   400096   83.99%
Elapsed time = 746.30 sec. (1260333.36 ticks, tree = 44.27 MB, solutions = 1)
    440   326       68.7358   186      281.0000       45.0000   401246   83.99%
*   465+  341                          279.0000       45.0000            83.87%
    465   343       59.2736   239      279.0000       45.0000   402002   83.87%
    466   344       45.0000   258      279.0000       45.0000   407487   83.87%
    467   345       45.0843   270      279.0000       45.0000   416383   83.87%
    468   346       45.2752   380      279.0000       45.0000   417823   83.87%
    474   352       45.4551   360      279.0000       45.0000   419550   83.87%
    477   355       45.6803   425      279.0000       45.0000   421004   83.87%
    479   357       45.8617   440      279.0000       45.0000   423277   83.87%
    480   358       46.0426   389      279.0000       45.0000   424840   83.87%
    483   361       46.0901   431      279.0000       45.0000   426559   83.87%
Elapsed time = 858.94 sec. (1444654.53 ticks, tree = 50.07 MB, solutions = 2)
    487   365       46.2347   736      279.0000       45.0000   428633   83.87%
    489   367       46.3140   632      279.0000       45.0000   430096   83.87%
    493   371       46.3781   794      279.0000       45.0000   431571   83.87%
    496   374       46.4682   809      279.0000       45.0000   432990   83.87%
    501   379       46.5261   770      279.0000       45.0000   434335   83.87%
    506   384       46.6009   441      279.0000       45.0000   436416   83.87%
    510   388       46.6280   631      279.0000       45.0000   437749   83.87%
    512   390       46.6604   586      279.0000       45.0000   439399   83.87%
    518   396       46.7560   639      279.0000       45.0000   440716   83.87%
    520   398       46.7731   420      279.0000       45.0000   441199   83.87%
Elapsed time = 937.29 sec. (1574383.50 ticks, tree = 55.10 MB, solutions = 2)
    524   402       46.9153   519      279.0000       45.0000   442837   83.87%
    528   406       47.0233   477      279.0000       45.0000   445371   83.87%
    531   409       47.1418   487      279.0000       45.0000   447071   83.87%
    534   412       47.1839   479      279.0000       45.0000   448790   83.87%
    536   414       47.1883   501      279.0000       45.0000   450629   83.87%
    537   415       47.2208   483      279.0000       45.0000   452057   83.87%
    541   419       47.3402   412      279.0000       45.0000   453887   83.87%
    544   422       47.3800   481      279.0000       45.0000   455785   83.87%
    547   425       47.4125   477      279.0000       45.0000   457769   83.87%
    551   429       47.5165   455      279.0000       45.0000   459829   83.87%
Elapsed time = 966.15 sec. (1626937.30 ticks, tree = 59.32 MB, solutions = 2)
    554   432       47.5571   395      279.0000       45.0000   461648   83.87%
    556   434       47.6158   462      279.0000       45.0000   463587   83.87%
    561   439       47.6851   468      279.0000       45.0000   465795   83.87%
    564   442       47.6948   389      279.0000       45.0000   467378   83.87%
    567   445       47.7477   380      279.0000       45.0000   468951   83.87%
    571   449       47.9381   498      279.0000       45.0000   470494   83.87%
    575   453       45.0000   237      279.0000       45.0000   578090   83.87%
    576   454       45.0000   313      279.0000       45.0000   593014   83.87%
    577   454       45.0000   266      279.0000       45.0000   599474   83.87%
    578   455       45.0000   337      279.0000       45.0000   606260   83.87%
Elapsed time = 1906.94 sec. (3027355.85 ticks, tree = 62.59 MB, solutions = 2)
    579   455       45.0000   267      279.0000       45.0000   606504   83.87%
    580   456       45.0000   270      279.0000       45.0000   606519   83.87%
    581   455       45.0000   266      279.0000       45.0000   606539   83.87%
    582   455       45.0000   261      279.0000       45.0000   606600   83.87%
    583   455       45.0000   259      279.0000       45.0000   606609   83.87%
    584   456       45.0211   261      279.0000       45.0000   609975   83.87%
    585   457       45.0292   236      279.0000       45.0000   610038   83.87%
    586   457       46.0000   246      279.0000       45.0000   611319   83.87%
    587   457       46.0000   298      279.0000       45.0000   611430   83.87%
    588   457       47.0000   286      279.0000       45.0000   630984   83.87%
Elapsed time = 2017.23 sec. (3236758.64 ticks, tree = 63.10 MB, solutions = 2)
    589   457       47.0000   334      279.0000       45.0000   631190   83.87%
    591   457       47.0000   340      279.0000       45.0000   631654   83.87%
    592   457       51.0000   311      279.0000       45.0000   647444   83.87%
    593   457       51.0000   372      279.0000       45.0000   647721   83.87%
    594   456       51.0000   375      279.0000       45.0000   647724   83.87%
    595   456       63.0000   340      279.0000       45.0000   648253   83.87%
    596   456       63.0000   334      279.0000       45.0000   648292   83.87%
    599   459       73.0000   333      279.0000       45.0000   668589   83.87%
    600   460       63.0000   324      279.0000       45.0000   668591   83.87%
    601   460       63.0000   334      279.0000       45.0000   668886   83.87%
Elapsed time = 2108.44 sec. (3398549.95 ticks, tree = 63.50 MB, solutions = 2)
    602   461       63.0000   333      279.0000       45.0000   668909   83.87%
    603   461       63.0000   335      279.0000       45.0000   668911   83.87%
    604   462       63.0000   335      279.0000       45.0000   668912   83.87%
    605   463       63.0000   331      279.0000       45.0000   668915   83.87%
    606   464       63.0000   311      279.0000       45.0000   669306   83.87%
    607   464       63.0000   313      279.0000       45.0000   669319   83.87%
    614   466       63.0000   268      279.0000       45.0000   669534   83.87%
    615   466       63.0000   325      279.0000       45.0000   670520   83.87%
    618   467       63.0000   393      279.0000       45.0000   671743   83.87%
    621   470       63.0000   275      279.0000       45.0000   672104   83.87%
Elapsed time = 2164.46 sec. (3499738.86 ticks, tree = 64.59 MB, solutions = 2)
    622   471       63.0000   280      279.0000       45.0000   681527   83.87%
    624   472       63.0000   301      279.0000       45.0000   684851   83.87%
    625   472       63.0000   270      279.0000       45.0000   692940   83.87%
    626   473       63.0000   263      279.0000       45.0000   701417   83.87%
    628   473       63.0000   277      279.0000       45.0000   705575   83.87%
    630   472       99.0000   282      279.0000       45.0000   718447   83.87%
    634   472      100.0000   347      279.0000       45.0000   723027   83.87%
    635   472      100.0000   328      279.0000       45.0000   723184   83.87%
    637   471      100.0000   310      279.0000       45.0000   731796   83.87%
    638   471      100.0000   274      279.0000       45.0000   738743   83.87%
Elapsed time = 2259.83 sec. (3645405.49 ticks, tree = 64.87 MB, solutions = 2)
    639   472      100.0000   255      279.0000       45.0000   739170   83.87%
    640   472      100.0000   247      279.0000       45.0000   739188   83.87%
    641   472      100.0000   268      279.0000       45.0000   749138   83.87%
    642   473      100.0000   374      279.0000       45.0000   751407   83.87%
    643   473      100.0000   285      279.0000       45.0000   751475   83.87%
    645   474      100.0000   333      279.0000       45.0000   753079   83.87%
    647   475      100.0000   298      279.0000       45.0000   756620   83.87%
    649   474      141.0283   274      279.0000       45.0000   763256   83.87%
    652   465      100.0000   230      279.0000       45.0000   769836   83.87%
    654   466      100.0000   240      279.0000       45.0000   778550   83.87%
Elapsed time = 2321.11 sec. (3742899.51 ticks, tree = 64.33 MB, solutions = 2)
    655   466      100.0000   296      279.0000       45.0000   786671   83.87%
    658   468      100.0000   289      279.0000       45.0000   787975   83.87%
    661   470      100.0000   260      279.0000       45.0000   795208   83.87%
    663   471      100.0000   248      279.0000       45.0000   803550   83.87%
    665   471      104.0236   216      279.0000       45.0000   820385   83.87%
    667   471      100.3774   221      279.0000       45.0000   834218   83.87%
    669   472      100.0000   305      279.0000       45.0000   841789   83.87%
    674   476      100.0000   294      279.0000       45.0000   846173   83.87%
    676   476      100.0000   228      279.0000       45.0000   849869   83.87%
    678   476      106.0566   217      279.0000       45.0000   854284   83.87%
Elapsed time = 2390.97 sec. (3840064.13 ticks, tree = 65.64 MB, solutions = 2)
    686   481      108.0000   148      279.0000       45.0000   859531   83.87%
    696   485      100.0000   181      279.0000       45.0000   860335   83.87%
    705   484      102.1698   135      279.0000       45.0000   865096   83.87%
    714   488      100.3962   133      279.0000       45.0000   869825   83.87%
    723   490      100.0000   147      279.0000       45.0000   872386   83.87%
    736   491      112.0000   127      279.0000       45.0000   873841   83.87%
    753   492      166.0000    95      279.0000       45.0000   875230   83.87%
    800   490       45.0000   254      279.0000       45.0000   875546   83.87%
    801   489       45.0000   228      279.0000       45.0000   881587   83.87%
    802   490       47.0000   275      279.0000       45.0000   894205   83.87%
Elapsed time = 2475.56 sec. (3976510.46 ticks, tree = 68.07 MB, solutions = 2)
    804   490       47.0000   265      279.0000       45.0000   903718   83.87%
    805   490       47.0566   275      279.0000       45.0000   913088   83.87%
    806   489       47.6226   283      279.0000       45.0000   923080   83.87%
    809   490       48.0000   329      279.0000       45.0000   924061   83.87%
    810   489       48.0000   330      279.0000       45.0000   925165   83.87%
    811   490       48.0000   292      279.0000       45.0000   927083   83.87%
    813   489       74.0377   334      279.0000       45.0000   939002   83.87%
    815   490       48.0000   287      279.0000       45.0000   949493   83.87%
    818   492       48.0000   283      279.0000       45.0000   952276   83.87%
    820   493       48.0000   298      279.0000       45.0000   961313   83.87%
Elapsed time = 2604.72 sec. (4180855.21 ticks, tree = 68.32 MB, solutions = 2)
    821   493       48.0000   318      279.0000       45.0000   962772   83.87%
    823   494       48.0000   318      279.0000       45.0000   963658   83.87%
    824   495       48.0000   238      279.0000       45.0000   969950   83.87%
    826   495       49.0566   250      279.0000       45.0000   979700   83.87%
    828   495       48.0000   280      279.0000       45.0000   989127   83.87%
    829   496       48.0000   266      279.0000       45.0000  1000312   83.87%
    832   499       48.0000   299      279.0000       45.0000  1001320   83.87%
    833   499       48.0000   302      279.0000       45.0000  1003289   83.87%
    834   499       48.0000   267      279.0000       45.0000  1005042   83.87%
    835   499       50.2264   350      279.0000       45.0000  1006707   83.87%
Elapsed time = 2736.32 sec. (4395691.25 ticks, tree = 69.40 MB, solutions = 2)
    840   502       51.0000   314      279.0000       45.0000  1008333   83.87%
    841   502       51.0000   327      279.0000       45.0000  1009613   83.87%
    842   503       51.0000   269      279.0000       45.0000  1016222   83.87%
    844   505       51.0000   232      279.0000       45.0000  1021453   83.87%
    846   505       51.0126   240      279.0000       45.0000  1029229   83.87%
    849   507       51.0000   285      279.0000       45.0000  1034336   83.87%
    852   508       51.0000   258      279.0000       45.0000  1038993   83.87%
    854   508       58.4906   337      279.0000       45.0000  1045813   83.87%
    855   508       51.0000   255      279.0000       45.0000  1049406   83.87%
    856   509       51.0000   251      279.0000       45.0000  1051648   83.87%
Elapsed time = 2797.85 sec. (4493165.76 ticks, tree = 70.65 MB, solutions = 2)
    859   512       51.0000   282      279.0000       45.0000  1053748   83.87%
    860   513       51.0000   237      279.0000       45.0000  1059113   83.87%
    861   514       51.0000   246      279.0000       45.0000  1063445   83.87%
    864   514       51.0000   259      279.0000       45.0000  1065724   83.87%
    868   516       51.7439   228      279.0000       45.0000  1069732   83.87%
    875   518       52.0000   237      279.0000       45.0000  1070724   83.87%
    880   519       52.0000   228      279.0000       45.0000  1073591   83.87%
    894   523       54.5283   181      279.0000       45.0000  1074045   83.87%
    906   526       54.0000   241      279.0000       45.0000  1074919   83.87%
    917   534       54.0000   260      279.0000       45.0000  1076275   83.87%
Elapsed time = 2870.49 sec. (4593689.59 ticks, tree = 74.26 MB, solutions = 2)
    923   535       79.0000   214      279.0000       45.0000  1082281   83.87%
    933   537      100.0000   192      279.0000       45.0000  1087119   83.87%
    937   539       80.0000   197      279.0000       45.0000  1091492   83.87%
    942   542      113.0000   206      279.0000       45.0000  1094321   83.87%
    952   548       84.2264   210      279.0000       45.0000  1097195   83.87%
    970   555       82.0000   159      279.0000       45.0000  1097949   83.87%
    987   568       82.0000   125      279.0000       45.0000  1098401   83.87%
   1023   575      160.0000   104      279.0000       45.0000  1098782   83.87%
   1065   579       45.0616   261      279.0000       45.0000  1109144   83.87%
   1066   579       45.0736   326      279.0000       45.0000  1124796   83.87%
Elapsed time = 2961.40 sec. (4749846.10 ticks, tree = 81.30 MB, solutions = 2)
   1073   582       46.0000   323      279.0000       45.0000  1137854   83.87%
   1075   584       46.0000   301      279.0000       45.0000  1139811   83.87%
   1077   586       46.0000   250      279.0000       45.0000  1140588   83.87%
   1079   586       46.0000   257      279.0000       45.0000  1146497   83.87%
   1082   588       46.0000   270      279.0000       45.0000  1149024   83.87%
   1086   590       46.0000   323      279.0000       45.0000  1149274   83.87%
   1088   592       46.0000   261      279.0000       45.0000  1152772   83.87%
   1089   592       46.0000   287      279.0000       45.0000  1155536   83.87%
   1091   594       46.0000   269      279.0000       45.0000  1156388   83.87%
   1092   594       46.0000   231      279.0000       45.0000  1163663   83.87%
Elapsed time = 3025.73 sec. (4861259.32 ticks, tree = 83.18 MB, solutions = 2)
   1094   594       46.0000   280      279.0000       45.0000  1180578   83.87%
   1096   595       46.0000   275      279.0000       45.0000  1183547   83.87%
   1099   597       46.0000   285      279.0000       45.0000  1186396   83.87%
   1103   598       46.0000   270      279.0000       45.0000  1194544   83.87%
   1104   597       46.3535   248      279.0000       45.0000  1202599   83.87%
   1109   599       47.0000   252      279.0000       45.0000  1207079   83.87%
   1114   602       47.0000   256      279.0000       45.0000  1208379   83.87%
   1115   603       47.0000   262      279.0000       45.0000  1211650   83.87%
   1117   603       47.0318   215      279.0000       45.0000  1214384   83.87%
   1123   606       50.0377   251      279.0000       45.0000  1218556   83.87%
Elapsed time = 3093.48 sec. (4976223.54 ticks, tree = 84.99 MB, solutions = 2)
   1133   612       51.0000   255      279.0000       45.0000  1222997   83.87%
   1135   613       51.0000   289      279.0000       45.0000  1223523   83.87%
   1146   620       51.0000   255      279.0000       45.0000  1223734   83.87%
   1155   624       58.0283   221      279.0000       45.0000  1230486   83.87%
   1163   627       59.0000   248      279.0000       45.0000  1231519   83.87%
   1164   628       74.0000   196      279.0000       45.0000  1239214   83.87%
   1175   631       82.0000   166      279.0000       45.0000  1239749   83.87%
   1177   632       45.0000   263      279.0000       45.0000  1256522   83.87%
   1178   632       45.0000   281      279.0000       45.0000  1263443   83.87%
   1182   636       45.0000   328      279.0000       45.0000  1269399   83.87%
Elapsed time = 3207.45 sec. (5171817.54 ticks, tree = 89.08 MB, solutions = 2)
   1185   636       45.0591   262      279.0000       45.0000  1282254   83.87%
   1187   637       46.0000   416      279.0000       45.0000  1282640   83.87%
   1189   638       46.0000   472      279.0000       45.0000  1283205   83.87%
   1194   641       46.0000   492      279.0000       45.0000  1283263   83.87%
   1198   643       46.0000   337      279.0000       45.0000  1291992   83.87%
   1199   644       46.0000   294      279.0000       45.0000  1298483   83.87%
   1200   644       46.0000   460      279.0000       45.0000  1308134   83.87%
   1201   644       46.2787   469      279.0000       45.0000  1315183   83.87%
   1203   646       47.0000   481      279.0000       45.0000  1315720   83.87%
   1205   646       47.0000   354      279.0000       45.0000  1317738   83.87%
Elapsed time = 3292.79 sec. (5324334.76 ticks, tree = 90.35 MB, solutions = 2)
   1207   646       47.0000   334      279.0000       45.0000  1321916   83.87%
   1209   646       47.0000   354      279.0000       45.0000  1333674   83.87%
   1211   648       47.0000   347      279.0000       45.0000  1352673   83.87%
   1212   648       47.0000   317      279.0000       45.0000  1358877   83.87%
   1214   649       47.0175   260      279.0000       45.0000  1363024   83.87%
   1221   650       48.0000   349      279.0000       45.0000  1363304   83.87%
   1227   654       48.0000   345      279.0000       45.0000  1364125   83.87%
   1228   655       48.0000   366      279.0000       45.0000  1372533   83.87%
   1231   656       48.0000   295      279.0000       45.0000  1377894   83.87%
   1238   662       48.0000   319      279.0000       45.0000  1378291   83.87%
Elapsed time = 3383.21 sec. (5484176.15 ticks, tree = 92.54 MB, solutions = 2)
   1247   667       48.0000   346      279.0000       45.0000  1378456   83.87%
   1251   669       48.0000   303      279.0000       45.0000  1379252   83.87%
   1258   674       48.0000   273      279.0000       45.0000  1379853   83.87%
   1261   675       48.0000   257      279.0000       45.0000  1381847   83.87%
   1262   676       48.0000   239      279.0000       45.0000  1385978   83.87%
   1274   675       65.0000   202      279.0000       45.0000  1386288   83.87%
   1285   680       75.2830   197      279.0000       45.0000  1386637   83.87%
   1297   681      107.0000   184      279.0000       45.0000  1386818   83.87%
   1310   686      107.0000   162      279.0000       45.0000  1387142   83.87%
   1327   683      107.0000   154      279.0000       45.0000  1387442   83.87%
Elapsed time = 3412.95 sec. (5529819.48 ticks, tree = 95.54 MB, solutions = 2)
   1351   688      137.0000    95      279.0000       45.0000  1387791   83.87%
*  1375+  662                          269.0000       45.0000            83.27%

Clique cuts applied:  14
Cover cuts applied:  8
Mixed integer rounding cuts applied:  45
Zero-half cuts applied:  55
Gomory fractional cuts applied:  5

Root node processing (before b&c):
  Real time             =  311.82 sec. (498262.31 ticks)
Sequential b&c:
  Real time             = 3288.19 sec. (5364156.89 ticks)
                          ------------
Total (root+branch&cut) = 3600.01 sec. (5862419.20 ticks)

Solution pool: 3 solutions saved.

MIP - Time limit exceeded, integer feasible:  Objective =  2.6900000000e+02
Current MIP best bound =  4.5000000000e+01 (gap = 224, 83.27%)
Solution time = 3600.01 sec.  Iterations = 1425956  Nodes = 1377 (664)
Deterministic time = 5862419.57 ticks  (1628.44 ticks/sec)

CPLEX> Incumbent solution
Variable Name           Solution Value
y                           269.000000
x23                           1.000000
x5780                         1.000000
x11595                        1.000000
x17346                        1.000000
x23134                        1.000000
x28917                        1.000000
x34704                        1.000000
x40492                        1.000000
x46264                        1.000000
x52059                        1.000000
x57831                        1.000000
x63593                        1.000000
x69386                        1.000000
x75113                        1.000000
x80876                        1.000000
x86709                        1.000000
x92478                        1.000000
x98205                        1.000000
x104041                       1.000000
x109758                       1.000000
x115531                       1.000000
x121302                       1.000000
x127094                       1.000000
x1749                         1.000000
x6309                         1.000000
x11705                        1.000000
x22269                        1.000000
x25309                        1.000000
x31541                        1.000000
x38229                        1.000000
x44917                        1.000000
x50389                        1.000000
x57609                        1.000000
x59813                        1.000000
x68097                        1.000000
x74861                        1.000000
x75545                        1.000000
x82993                        1.000000
x91809                        1.000000
x97053                        1.000000
x99105                        1.000000
x109441                       1.000000
x114989                       1.000000
x119473                       1.000000
x121677                       1.000000
x128213                       1.000000
x3498                         1.000000
x16571                        1.000000
x67949                        1.000000
x79199                        1.000000
x8368                         1.000000
x129893                       1.000000
x1682                         1.000000
x4347                         1.000000
x130812                       1.000000
x13469                        1.000000
x67811                        1.000000
x113792                       1.000000
x4733                         1.000000
x3672                         1.000000
x17278                        1.000000
x130519                       1.000000
x60904                        1.000000
x81729                        1.000000
x129991                       1.000000
x130372                       1.000000
x128701                       1.000000
x6038                         1.000000
x9687                         1.000000
x31652                        1.000000
x131974                       1.000000
x132203                       1.000000
x129544                       1.000000
x14937                        1.000000
x63122                        1.000000
x130080                       1.000000
x16385                        1.000000
x132514                       1.000000
x1567                         1.000000
x3849                         1.000000
x127730                       1.000000
x127                          1.000000
x8336                         1.000000
x116333                       1.000000
x110786                       1.000000
x76967                        1.000000
x742                          1.000000
x64963                        1.000000
x63901                        1.000000
x1127                         1.000000
x14808                        1.000000
x129417                       1.000000
x18686                        1.000000
x12835                        1.000000
x129116                       1.000000
x111258                       1.000000
x129500                       1.000000
x14668                        1.000000
u2                            8.000000
u3                            8.000000
u5                            3.000000
u6                           52.000000
u7                           50.000000
u8                           52.000000
u9                           13.000000
u10                           2.000000
u12                          51.000000
u15                           4.000000
u16                          15.000000
u17                           6.000000
u18                           2.000000
u19                           1.000000
u20                           2.000000
u21                           6.000000
u23                           1.000000
u24                          11.000000
u26                           5.000000
u27                           7.000000
u28                          52.000000
u29                          52.000000
u31                          10.000000
u32                           4.000000
u33                           1.000000
u34                           1.000000
u35                          51.000000
u36                           1.000000
u38                          12.000000
u39                           9.000000
u40                           2.000000
u41                           3.000000
u42                           5.000000
u44                           3.000000
u45                           2.000000
u46                           6.000000
u47                           7.000000
u48                          52.000000
u49                          10.000000
u50                          14.000000
u51                           9.000000
u52                           8.000000
u53                           1.000000
u54                           1.000000
u55                           1.000000
u58                           3.000000
u59                           2.000000
u61                           4.000000
u63                           5.000000
u64                           1.000000
u65                          11.000000
u66                           3.000000
u67                           7.000000
u68                           8.000000
u70                          34.000000
u71                           1.000000
u72                           5.000000
u76                           4.000000
All other variables in the range 1-131176 are 0.
CPLEX> 